(assert (hole 0 ))
(assert (not (=> (and (hole 0 ) (hole 1 )) (hole 2 ))))
(assert (not (hole 0 )))
(assert (and (and (and (and (and (and (and (and (and (and (and (and (and (and (and (and (and (and (and (and (and (and (and (and (and (and (and (and (and (and (and (and (and (and (and (and (and (and (and (and (and (and (and (and (and (and (and (and (not (not (not (hole 0 )))) (not (not (hole 1 )))) (not (not (hole 2 )))) (not (not (hole 3 )))) (not (hole 4 ))) (not (not (hole 5 )))) (not (not (hole 6 )))) (not (not (hole 7 )))) (not (not (hole 8 )))) (not (not (hole 9 )))) (not (not (hole 10 )))) (not (not (hole 11 )))) (not (not (hole 12 )))) (not (not (hole 13 )))) (not (not (hole 14 )))) (not (not (hole 15 )))) (not (not (hole 16 )))) (not (not (hole 17 )))) (not (not (hole 18 )))) (not (not (hole 19 )))) (not (not (hole 20 )))) (not (not (hole 21 )))) (not (not (hole 22 )))) (not (not (hole 23 )))) (not (not (hole 24 )))) (not (not (hole 25 )))) (not (not (hole 26 )))) (not (not (hole 27 )))) (not (not (hole 28 )))) (not (hole 29 ))) (not (not (hole 30 )))) (not (not (hole 31 )))) (not (not (hole 32 )))) (not (hole 33 ))) (not (hole 34 ))) (hole 35 )) (hole 36 )) (hole 37 )) (hole 38 )) (hole 39 )) (hole 40 )) (hole 41 )) (hole 42 )) (hole 43 )) (hole 44 )) (hole 45 )) (hole 46 )) (hole 47 )) (hole 48 )))
(assert (forall ((VAR2 TYPE2)) (exists ((VAR0 TYPE0) (VAR1 TYPE1)) (and (hole 0 ) (hole 1 )))))
(assert (forall ((VAR1 TYPE1)) (exists ((VAR0 TYPE0)) (and (hole 0 ) (hole 1 ) (hole 2 )))))
(assert (and (hole 0 ) (hole 1 ) (hole 2 )))
(assert (and (and (and (and (and (and (and (and (and (and (and (and (and (and (and (and (and (and (and (and (and (and (and (and (and (and (and (and (and (and (and (and (and (and (and (and (and (and (and (and (and (and (and (and (and (and (and (and (and (and (and (and (and (and (and (and (not (not (not (hole 0 )))) (not (not (hole 1 )))) (not (not (hole 2 )))) (not (not (hole 3 )))) (not (not (hole 4 )))) (not (not (hole 5 )))) (not (not (hole 6 )))) (not (not (hole 7 )))) (not (not (hole 8 )))) (not (not (hole 9 )))) (not (not (hole 10 )))) (not (hole 11 ))) (not (not (hole 12 )))) (not (not (hole 13 )))) (not (not (hole 14 )))) (not (not (hole 15 )))) (not (not (hole 16 )))) (not (not (hole 17 )))) (not (not (hole 18 )))) (not (not (hole 19 )))) (not (not (hole 20 )))) (not (hole 21 ))) (not (not (hole 22 )))) (not (not (hole 23 )))) (not (not (hole 24 )))) (not (hole 25 ))) (not (hole 26 ))) (hole 27 )) (hole 28 )) (hole 29 )) (hole 30 )) (hole 31 )) (hole 32 )) (hole 33 )) (hole 34 )) (hole 35 )) (hole 36 )) (hole 37 )) (hole 38 )) (hole 39 )) (hole 40 )) (hole 41 )) (hole 42 )) (hole 43 )) (hole 44 )) (hole 45 )) (hole 46 )) (hole 47 )) (hole 48 )) (hole 49 )) (hole 50 )) (hole 51 )) (hole 52 )) (hole 53 )) (hole 54 )) (hole 55 )) (hole 56 )))
(assert (not s15))
(assert (forall ((VAR0 TYPE0)) (hole 0 )))
(assert (forall ((VAR0 TYPE0)) (=> (hole 0 ) (hole 1 ))))
(assert (forall ((VAR1 TYPE1)) (forall ((VAR2 TYPE2)) (forall ((VAR3 TYPE3)) (=> (and (hole 0 ) (hole 1 )) (exists ((VAR0 TYPE0)) (and (hole 2 ) (hole 3 ))))))))
(assert (and s1 s3))
(assert (or (not (hole 0 )) (not (hole 1 ))))
(assert (or (not (hole 0 )) (hole 1 )))
(assert (and (hole 0 ) (hole 1 ) (hole 2 ) (hole 3 )))
(assert (not s8))
(assert s6)
(assert s8)
(assert (not (forall ((VAR0 TYPE0)) (hole 0 ))))
(assert (and (hole 0 ) (hole 1 ) (hole 2 ) (hole 3 ) (hole 4 )))
(assert (forall ((VAR3 TYPE3)) (=> (hole 0 ) (exists ((VAR0 TYPE0) (VAR1 TYPE1) (VAR2 TYPE2)) (and (hole 1 ) (hole 2 ))))))
(assert (and (hole 0 ) (hole 1 )))
(assert (=> (hole 0 ) (hole 1 )))
(assert (and (hole 0 ) (hole 1 ) (hole 2 ) (hole 3 ) (hole 4 ) (hole 5 ) (hole 6 ) (hole 7 ) (hole 8 ) (hole 9 ) (hole 10 ) (hole 11 ) (hole 12 ) (hole 13 ) (hole 14 ) (hole 15 ) (hole 16 ) (hole 17 ) (hole 18 )))
(assert (not s10))
(assert (and (hole 0 ) (hole 1 ) (not (hole 2 ))))
(assert (not (or (hole 0 ) (hole 1 ))))
(assert (exists ((VAR0 TYPE0) (VAR1 TYPE1)) (hole 0 )))
(assert (and (hole 0 ) (not (and (or (hole 1 ) (hole 2 )) (or (hole 3 ) (hole 4 )) (hole 5 ) (hole 6 ))) (or (hole 7 ) (hole 8 )) (or (hole 9 ) (hole 10 )) (hole 11 ) (hole 12 )))
(assert (or (hole 0 ) (and (hole 1 ) (hole 2 ) (hole 3 ) (hole 4 ))))
(assert (=> (and (hole 0 ) (not (hole 1 ))) (hole 2 )))
(assert (forall ((VAR0 TYPE0)) (not (hole 0 ))))
(assert (forall ((VAR0 TYPE0) (VAR1 TYPE1)) (and (not (hole 0 )) (not (hole 1 )))))
(assert (or (hole 0 ) (hole 1 )))
(assert (and (and (hole 0 ) (hole 1 ) (hole 2 ) (hole 3 )) (and (hole 4 ) (hole 5 )) (and (hole 6 ) (hole 7 ) (hole 8 )) (hole 9 ) (hole 10 )))
(assert (and (hole 0 ) (not (hole 1 )) (hole 2 )))
(assert (and (hole 0 ) (not (hole 1 ))))
(assert (forall ((VAR1 TYPE1)) (forall ((VAR0 TYPE0)) (or (not (and (hole 0 ) (not (hole 1 )))) (hole 2 )))))
(assert (forall ((VAR1 TYPE1)) (forall ((VAR0 TYPE0)) (or (not (and (hole 0 ) (hole 1 ))) (hole 2 )))))
(assert (forall ((VAR1 TYPE1)) (forall ((VAR2 TYPE2)) (not (and (hole 0 ) (forall ((VAR3 TYPE3)) (or (not (and (and (and (and (hole 1 ) (hole 2 )) (or (not (hole 3 )) (hole 4 ))) (or (not (hole 5 )) (hole 6 ))) (exists ((VAR0 TYPE0)) (hole 7 )))) (hole 8 ))))))))
(assert e2)
(assert (and (hole 0 ) (not (hole 1 )) (hole 2 ) (hole 3 )))
(assert (and (hole 0 ) (hole 1 ) (hole 2 ) (hole 3 ) (hole 4 ) (hole 5 ) (hole 6 ) (hole 7 ) (hole 8 ) (hole 9 ) (hole 10 ) (hole 11 ) (hole 12 ) (hole 13 ) (hole 14 ) (hole 15 ) (hole 16 )))
(assert (and (and (hole 0 )) (hole 1 ) (hole 2 ) (hole 3 ) (hole 4 ) (hole 5 ) (hole 6 ) (hole 7 ) (hole 8 ) (hole 9 ) (hole 10 ) (hole 11 ) (hole 12 ) (hole 13 )))
(assert (or (hole 0 ) (and (hole 1 ) (hole 2 ) (hole 3 ) (hole 4 ) (hole 5 ) (hole 6 ) (hole 7 ) (hole 8 ) (hole 9 ) (hole 10 ) (hole 11 ) (hole 12 ) (hole 13 ) (hole 14 ) (hole 15 ) (hole 16 ) (hole 17 ) (hole 18 ) (hole 19 ) (hole 20 ) (hole 21 ) (hole 22 ))))
(assert (forall ((VAR0 TYPE0) (VAR1 TYPE1) (VAR2 TYPE2) (VAR3 TYPE3)) (=> (hole 0 ) (hole 1 ))))
(assert (forall ((VAR0 TYPE0) (VAR1 TYPE1) (VAR2 TYPE2)) (hole 0 )))
(assert (forall ((VAR0 TYPE0) (VAR1 TYPE1) (VAR2 TYPE2) (VAR3 TYPE3) (VAR4 TYPE4)) (=> (not (hole 0 )) (=> (not (hole 1 )) (not (hole 2 ))))))
(assert (exists ((VAR1 TYPE1)) (exists ((VAR2 TYPE2)) (forall ((VAR3 TYPE3)) (forall ((VAR0 TYPE0)) (not (hole 0 )))))))
(assert (and (hole 0 ) (or (hole 1 ) (hole 2 ))))
(assert (or (and (or (hole 0 ) (hole 1 )) (and (and (or (hole 2 ) (hole 3 )) (hole 4 )) (hole 5 ))) (or (hole 6 ) (and (hole 7 ) (hole 8 )))))
(assert (or (and (and (hole 0 ) (and (or (hole 1 ) (hole 2 )) (and (hole 3 ) (hole 4 )))) (and (and (or (hole 5 ) (hole 6 )) (hole 7 )) (and (and (hole 8 ) (hole 9 )) (hole 10 )))) (hole 11 )))
(assert (and (or (hole 0 ) (hole 1 )) (hole 2 )))
(assert (forall ((VAR0 TYPE0) (VAR1 TYPE1)) (hole 0 )))
(assert (or (hole 0 ) (hole 1 ) (hole 2 ) (hole 3 ) (hole 4 ) (hole 5 ) (hole 6 ) (hole 7 ) (hole 8 ) (hole 9 ) (hole 10 )))
